;; produced by cvc4_16.drv ;;
(set-logic AUFBVFPDTNIRA)
(set-info :source |VC generated by SPARK 2014|)
(set-info :smt-lib-version 2.5)
(set-info :category industrial)
(set-info :status unknown)
;;; generated by SMT-LIB2 driver
;;; SMT-LIB2 driver: bit-vectors, common part
;;; SMT-LIB2: integer arithmetic
(declare-datatypes () ((tuple0 (Tuple0))))
(declare-sort us_private 0)

(declare-fun private__bool_eq (us_private us_private) Bool)

(declare-const us_null_ext__ us_private)

(declare-sort us_type_of_heap 0)

(declare-datatypes ()
((us_type_of_heap__ref
 (mk___type_of_heap__ref (us_type_of_heap__content us_type_of_heap)))))
(declare-sort us_image 0)

(declare-datatypes () ((int__ref (mk_int__ref (int__content Int)))))
(declare-datatypes () ((bool__ref (mk_bool__ref (bool__content Bool)))))
(declare-datatypes () ((real__ref (mk_real__ref (real__content Real)))))
(declare-datatypes ()
((us_private__ref (mk___private__ref (us_private__content us_private)))))
(define-fun int__ref___projection ((a int__ref)) Int (int__content a))

(define-fun bool__ref___projection ((a bool__ref)) Bool (bool__content a))

(define-fun real__ref___projection ((a real__ref)) Real (real__content a))

(define-fun us_private__ref___projection ((a us_private__ref)) us_private
  (us_private__content a))

(define-fun to_int1 ((b Bool)) Int (ite (= b true) 1 0))

(define-fun of_int ((i Int)) Bool (ite (= i 0) false true))

(define-fun in_range ((x Int)) Bool (or (= x 0) (= x 1)))

(declare-fun attr__ATTRIBUTE_IMAGE (Bool) us_image)

(declare-fun attr__ATTRIBUTE_VALUE__pre_check (us_image) Bool)

(declare-fun attr__ATTRIBUTE_VALUE (us_image) Bool)

(declare-sort natural 0)

(define-fun in_range1 ((x Int)) Bool (and (<= 0 x) (<= x 2147483647)))

(declare-fun attr__ATTRIBUTE_IMAGE1 (Int) us_image)

(declare-fun attr__ATTRIBUTE_VALUE__pre_check1 (us_image) Bool)

(declare-fun attr__ATTRIBUTE_VALUE1 (us_image) Int)

(declare-fun user_eq (natural natural) Bool)

(declare-const dummy natural)

(declare-datatypes ()
((natural__ref (mk_natural__ref (natural__content natural)))))
(define-fun natural__ref___projection ((a natural__ref)) natural (natural__content
                                                                 a))

(declare-fun to_rep (natural) Int)

(declare-fun of_rep (Int) natural)

;; inversion_axiom
  (assert
  (forall ((x natural)) (! (= (of_rep (to_rep x)) x) :pattern ((to_rep x)) )))

;; range_axiom
  (assert
  (forall ((x natural)) (! (in_range1 (to_rep x)) :pattern ((to_rep x)) )))

;; coerce_axiom
  (assert
  (forall ((x Int))
  (! (=> (in_range1 x) (= (to_rep (of_rep x)) x)) :pattern ((to_rep
                                                            (of_rep x))) )))

(declare-sort positive 0)

(define-fun in_range2 ((x Int)) Bool (and (<= 1 x) (<= x 2147483647)))

(declare-fun attr__ATTRIBUTE_IMAGE2 (Int) us_image)

(declare-fun attr__ATTRIBUTE_VALUE__pre_check2 (us_image) Bool)

(declare-fun attr__ATTRIBUTE_VALUE2 (us_image) Int)

(declare-fun user_eq1 (positive positive) Bool)

(declare-const dummy1 positive)

(declare-datatypes ()
((positive__ref (mk_positive__ref (positive__content positive)))))
(define-fun positive__ref___projection ((a positive__ref)) positive (positive__content
                                                                    a))

(define-fun dynamic_invariant ((temp___expr_39 Int) (temp___is_init_36 Bool)
  (temp___skip_constant_37 Bool)
  (temp___do_toplevel_38 Bool)) Bool (=>
                                     (or (= temp___is_init_36 true)
                                     (<= 1 2147483647)) (in_range2
                                     temp___expr_39)))

(declare-sort integer 0)

(define-fun in_range3 ((x Int)) Bool (and (<= (- 2147483648) x)
                                     (<= x 2147483647)))

(declare-fun attr__ATTRIBUTE_IMAGE3 (Int) us_image)

(declare-fun attr__ATTRIBUTE_VALUE__pre_check3 (us_image) Bool)

(declare-fun attr__ATTRIBUTE_VALUE3 (us_image) Int)

(declare-fun user_eq2 (integer integer) Bool)

(declare-const dummy2 integer)

(declare-datatypes ()
((integer__ref (mk_integer__ref (integer__content integer)))))
(define-fun integer__ref___projection ((a integer__ref)) integer (integer__content
                                                                 a))

(declare-fun to_rep1 (integer) Int)

(declare-fun of_rep1 (Int) integer)

;; inversion_axiom
  (assert
  (forall ((x integer))
  (! (= (of_rep1 (to_rep1 x)) x) :pattern ((to_rep1 x)) )))

;; range_axiom
  (assert
  (forall ((x integer)) (! (in_range3 (to_rep1 x)) :pattern ((to_rep1 x)) )))

;; coerce_axiom
  (assert
  (forall ((x Int))
  (! (=> (in_range3 x) (= (to_rep1 (of_rep1 x)) x)) :pattern ((to_rep1
                                                              (of_rep1 x))) )))

(declare-datatypes ()
((us_split_fields
 (mk___split_fields
 (rec__frame_condition__cell__value natural)(rec__frame_condition__cell__max_left natural)(rec__frame_condition__cell__max_right natural)))))
(define-fun us_split_fields_Value__projection ((a us_split_fields)) natural
  (rec__frame_condition__cell__value a))

(define-fun us_split_fields_Max_Left__projection ((a us_split_fields)) natural
  (rec__frame_condition__cell__max_left a))

(define-fun us_split_fields_Max_Right__projection ((a us_split_fields)) natural
  (rec__frame_condition__cell__max_right a))

(declare-datatypes ()
((us_split_fields__ref
 (mk___split_fields__ref (us_split_fields__content us_split_fields)))))
(define-fun us_split_fields__ref___projection ((a us_split_fields__ref)) us_split_fields
  (us_split_fields__content a))

(declare-datatypes ()
((us_rep (mk___rep (us_split_fields1 us_split_fields)))))
(define-fun us_rep___projection ((a us_rep)) us_split_fields (us_split_fields1
                                                             a))

(define-fun bool_eq ((a us_rep)
  (b us_rep)) Bool (ite (and
                        (and
                        (= (to_rep
                           (rec__frame_condition__cell__value
                           (us_split_fields1 a))) (to_rep
                                                  (rec__frame_condition__cell__value
                                                  (us_split_fields1 b))))
                        (= (to_rep
                           (rec__frame_condition__cell__max_left
                           (us_split_fields1 a))) (to_rep
                                                  (rec__frame_condition__cell__max_left
                                                  (us_split_fields1 b)))))
                        (= (to_rep
                           (rec__frame_condition__cell__max_right
                           (us_split_fields1 a))) (to_rep
                                                  (rec__frame_condition__cell__max_right
                                                  (us_split_fields1 b)))))
                   true false))

(declare-const value__size Int)

(declare-fun object__size (us_rep) Int)

(declare-const value__alignment Int)

(declare-fun object__alignment (us_rep) Int)

;; value__size_axiom
  (assert (<= 0 value__size))

;; object__size_axiom
  (assert (forall ((a us_rep)) (<= 0 (object__size a))))

;; value__alignment_axiom
  (assert (<= 0 value__alignment))

;; object__alignment_axiom
  (assert (forall ((a us_rep)) (<= 0 (object__alignment a))))

(declare-const frame_condition__cell__value__first__bit Int)

(declare-const frame_condition__cell__value__last__bit Int)

(declare-const frame_condition__cell__value__position Int)

;; frame_condition__cell__value__first__bit_axiom
  (assert (<= 0 frame_condition__cell__value__first__bit))

;; frame_condition__cell__value__last__bit_axiom
  (assert
  (< frame_condition__cell__value__first__bit frame_condition__cell__value__last__bit))

;; frame_condition__cell__value__position_axiom
  (assert (<= 0 frame_condition__cell__value__position))

(declare-const frame_condition__cell__max_left__first__bit Int)

(declare-const frame_condition__cell__max_left__last__bit Int)

(declare-const frame_condition__cell__max_left__position Int)

;; frame_condition__cell__max_left__first__bit_axiom
  (assert (<= 0 frame_condition__cell__max_left__first__bit))

;; frame_condition__cell__max_left__last__bit_axiom
  (assert
  (< frame_condition__cell__max_left__first__bit frame_condition__cell__max_left__last__bit))

;; frame_condition__cell__max_left__position_axiom
  (assert (<= 0 frame_condition__cell__max_left__position))

(declare-const frame_condition__cell__max_right__first__bit Int)

(declare-const frame_condition__cell__max_right__last__bit Int)

(declare-const frame_condition__cell__max_right__position Int)

;; frame_condition__cell__max_right__first__bit_axiom
  (assert (<= 0 frame_condition__cell__max_right__first__bit))

;; frame_condition__cell__max_right__last__bit_axiom
  (assert
  (< frame_condition__cell__max_right__first__bit frame_condition__cell__max_right__last__bit))

;; frame_condition__cell__max_right__position_axiom
  (assert (<= 0 frame_condition__cell__max_right__position))

(declare-fun user_eq3 (us_rep us_rep) Bool)

(declare-const dummy3 us_rep)

(declare-datatypes () ((cell__ref (mk_cell__ref (cell__content us_rep)))))
(define-fun cell__ref___projection ((a cell__ref)) us_rep (cell__content a))

(declare-datatypes ()
((map__ref (mk_map__ref (map__content (Array Int us_rep))))))
(declare-fun slide ((Array Int us_rep) Int Int) (Array Int us_rep))

;; slide_eq
  (assert
  (forall ((a (Array Int us_rep)))
  (forall ((first Int))
  (! (= (slide a first first) a) :pattern ((slide a first first)) ))))

;; slide_def
  (assert
  (forall ((a (Array Int us_rep)))
  (forall ((old_first Int))
  (forall ((new_first Int))
  (forall ((i Int))
  (! (= (select (slide a old_first new_first) i) (select a (- i (- new_first old_first)))) :pattern ((select
  (slide a old_first new_first) i)) ))))))

(declare-fun concat1 ((Array Int us_rep) Int Int (Array Int us_rep) Int
  Int) (Array Int us_rep))

;; concat_def
  (assert
  (forall ((a (Array Int us_rep)) (b (Array Int us_rep)))
  (forall ((a_first Int) (a_last Int) (b_first Int) (b_last Int))
  (forall ((i Int))
  (! (and
     (=> (and (<= a_first i) (<= i a_last))
     (= (select (concat1 a a_first a_last b b_first b_last) i) (select a i)))
     (=> (< a_last i)
     (= (select (concat1 a a_first a_last b b_first b_last) i) (select b (+ (- i a_last) (- b_first 1)))))) :pattern ((select
  (concat1 a a_first a_last b b_first b_last) i)) )))))

(declare-fun singleton1 (us_rep Int) (Array Int us_rep))

;; singleton_def
  (assert
  (forall ((v us_rep))
  (forall ((i Int))
  (! (= (select (singleton1 v i) i) v) :pattern ((select (singleton1 v i) i)) ))))

(define-fun bool_eq1 ((a (Array Int us_rep)) (a__first Int) (a__last Int)
  (b (Array Int us_rep)) (b__first Int)
  (b__last Int)) Bool (ite (and
                           (ite (<= a__first a__last)
                           (and (<= b__first b__last)
                           (= (- a__last a__first) (- b__last b__first)))
                           (< b__last b__first))
                           (forall ((temp___idx_132 Int))
                           (=>
                           (and (<= a__first temp___idx_132)
                           (<= temp___idx_132 a__last))
                           (= (bool_eq (select a temp___idx_132)
                              (select b (+ (- b__first a__first) temp___idx_132))) true))))
                      true false))

;; bool_eq_rev
  (assert
  (forall ((a (Array Int us_rep)) (b (Array Int us_rep)))
  (forall ((a__first Int) (a__last Int) (b__first Int) (b__last Int))
  (=> (= (bool_eq1 b b__first b__last a a__first a__last) true)
  (and
  (ite (<= a__first a__last)
  (and (<= b__first b__last) (= (- a__last a__first) (- b__last b__first)))
  (< b__last b__first))
  (forall ((temp___idx_132 Int))
  (=> (and (<= a__first temp___idx_132) (<= temp___idx_132 a__last))
  (= (bool_eq (select a temp___idx_132)
     (select b (+ (- b__first a__first) temp___idx_132))) true))))))))

(declare-sort t 0)

(declare-fun first (t) integer)

(declare-fun last (t) integer)

(declare-fun mk (Int Int) t)

;; mk_def
  (assert
  (forall ((f Int) (l Int))
  (! (=> (in_range3 f)
     (=> (in_range3 l)
     (and (= (to_rep1 (first (mk f l))) f) (= (to_rep1 (last (mk f l))) l)))) :pattern (
  (mk f l)) )))

(define-fun dynamic_property ((range_first Int) (range_last Int) (low Int)
  (high Int)) Bool (and (in_range3 low)
                   (and (in_range3 high)
                   (=> (<= low high) (and (in_range2 low) (in_range2 high))))))

(declare-datatypes () ((us_t (mk___t (elts (Array Int us_rep))(rt t)))))
(define-fun to_array ((a us_t)) (Array Int us_rep) (elts a))

(define-fun of_array ((a (Array Int us_rep)) (f Int)
  (l Int)) us_t (mk___t a (mk f l)))

(define-fun first1 ((a us_t)) Int (to_rep1 (first (rt a))))

(define-fun last1 ((a us_t)) Int (to_rep1 (last (rt a))))

(define-fun length ((a us_t)) Int (ite (<= (first1 a) (last1 a))
                                  (+ (- (last1 a) (first1 a)) 1) 0))

(declare-const value__size1 Int)

(declare-fun object__size1 ((Array Int us_rep)) Int)

(declare-const value__component__size Int)

(declare-fun object__component__size ((Array Int us_rep)) Int)

(declare-const value__alignment1 Int)

(declare-fun object__alignment1 ((Array Int us_rep)) Int)

;; value__size_axiom
  (assert (<= 0 value__size1))

;; object__size_axiom
  (assert (forall ((a (Array Int us_rep))) (<= 0 (object__size1 a))))

;; value__component__size_axiom
  (assert (<= 0 value__component__size))

;; object__component__size_axiom
  (assert
  (forall ((a (Array Int us_rep))) (<= 0 (object__component__size a))))

;; value__alignment_axiom
  (assert (<= 0 value__alignment1))

;; object__alignment_axiom
  (assert (forall ((a (Array Int us_rep))) (<= 0 (object__alignment1 a))))

(define-fun bool_eq2 ((x us_t)
  (y us_t)) Bool (bool_eq1 (elts x) (to_rep1 (first (rt x)))
                 (to_rep1 (last (rt x))) (elts y) (to_rep1 (first (rt y)))
                 (to_rep1 (last (rt y)))))

(declare-fun user_eq4 (us_t us_t) Bool)

(declare-const dummy4 us_t)

(declare-datatypes ()
((cell_array__ref (mk_cell_array__ref (cell_array__content us_t)))))
(define-fun cell_array__ref___projection ((a cell_array__ref)) us_t (cell_array__content
                                                                    a))

(declare-const a__first integer)

(declare-const a__last integer)

(declare-const attr__ATTRIBUTE_ADDRESS Int)

(declare-const first2 Int)

(declare-const attr__ATTRIBUTE_ADDRESS1 Int)

(declare-const last2 Int)

(declare-const attr__ATTRIBUTE_ADDRESS2 Int)

(declare-fun get_max_left (Int (Array Int us_rep)) Int)

(declare-fun get_max_left__function_guard (Int Int (Array Int us_rep)) Bool)

(declare-fun frame_left (us_t (Array Int us_rep)) Bool)

(declare-fun frame_left__function_guard (Bool us_t (Array Int us_rep)) Bool)

(declare-const first3 Int)

(declare-const attr__ATTRIBUTE_ADDRESS3 Int)

(declare-const last3 Int)

(declare-const attr__ATTRIBUTE_ADDRESS4 Int)

(declare-fun get_max_right (Int (Array Int us_rep)) Int)

(declare-fun get_max_right__function_guard (Int Int (Array Int us_rep)) Bool)

(declare-fun frame_right (us_t (Array Int us_rep)) Bool)

(declare-fun frame_right__function_guard (Bool us_t (Array Int us_rep)) Bool)

(declare-const first4 Int)

(declare-const attr__ATTRIBUTE_ADDRESS5 Int)

(declare-const last4 Int)

(declare-const attr__ATTRIBUTE_ADDRESS6 Int)

(define-fun dynamic_invariant1 ((temp___expr_33 Int) (temp___is_init_30 Bool)
  (temp___skip_constant_31 Bool)
  (temp___do_toplevel_32 Bool)) Bool (=>
                                     (or (= temp___is_init_30 true)
                                     (<= 0 2147483647)) (in_range1
                                     temp___expr_33)))

(define-fun dynamic_invariant2 ((temp___expr_15 Int) (temp___is_init_12 Bool)
  (temp___skip_constant_13 Bool)
  (temp___do_toplevel_14 Bool)) Bool (=>
                                     (or (= temp___is_init_12 true)
                                     (<= (- 2147483648) 2147483647))
                                     (in_range3 temp___expr_15)))

;; first__def_axiom
  (assert (= first2 (to_rep1 a__first)))

;; last__def_axiom
  (assert (= last2 (to_rep1 a__last)))

;; get_max_left__post_axiom
  (assert
  (forall ((index Int))
  (forall ((frame_condition__update_max_2__a (Array Int us_rep)))
  (! (=>
     (and (dynamic_invariant index true true true)
     (and (<= (to_rep1 a__first) index) (<= index (to_rep1 a__last))))
     (dynamic_invariant1
     (get_max_left index frame_condition__update_max_2__a) true false true)) :pattern (
  (get_max_left index frame_condition__update_max_2__a)) ))))

;; get_max_left__def_axiom
  (assert
  (forall ((index Int))
  (forall ((frame_condition__update_max_2__a (Array Int us_rep)))
  (! (=> (dynamic_invariant index true true true)
     (= (get_max_left index frame_condition__update_max_2__a) (to_rep
                                                              (rec__frame_condition__cell__max_left
                                                              (us_split_fields1
                                                              (select frame_condition__update_max_2__a index)))))) :pattern (
  (get_max_left index frame_condition__update_max_2__a)) ))))

(define-fun dynamic_invariant3 ((temp___expr_145 us_t)
  (temp___is_init_142 Bool) (temp___skip_constant_143 Bool)
  (temp___do_toplevel_144 Bool)) Bool (=>
                                      (not (= temp___skip_constant_143 true))
                                      (dynamic_property 1 2147483647
                                      (first1 temp___expr_145)
                                      (last1 temp___expr_145))))

;; frame_left__post_axiom
  (assert true)

;; frame_left__def_axiom
  (assert
  (forall ((old_a us_t))
  (forall ((frame_condition__update_max_2__a (Array Int us_rep)))
  (! (= (= (frame_left old_a frame_condition__update_max_2__a) true)
     (forall ((i Int))
     (=> (and (<= (to_rep1 a__first) i) (<= i (to_rep1 a__last)))
     (= (to_rep
        (rec__frame_condition__cell__value
        (us_split_fields1 (select frame_condition__update_max_2__a i))))
     (to_rep
     (rec__frame_condition__cell__value
     (us_split_fields1 (select (to_array old_a) i)))))))) :pattern ((frame_left
                                                                    old_a
                                                                    frame_condition__update_max_2__a)) ))))

;; get_max_right__post_axiom
  (assert
  (forall ((index Int))
  (forall ((frame_condition__update_max_2__a (Array Int us_rep)))
  (! (=>
     (and (dynamic_invariant index true true true)
     (and (<= (to_rep1 a__first) index) (<= index (to_rep1 a__last))))
     (dynamic_invariant1
     (get_max_right index frame_condition__update_max_2__a) true false true)) :pattern (
  (get_max_right index frame_condition__update_max_2__a)) ))))

;; get_max_right__def_axiom
  (assert
  (forall ((index Int))
  (forall ((frame_condition__update_max_2__a (Array Int us_rep)))
  (! (=> (dynamic_invariant index true true true)
     (= (get_max_right index frame_condition__update_max_2__a) (to_rep
                                                               (rec__frame_condition__cell__max_right
                                                               (us_split_fields1
                                                               (select frame_condition__update_max_2__a index)))))) :pattern (
  (get_max_right index frame_condition__update_max_2__a)) ))))

;; frame_right__post_axiom
  (assert true)

;; frame_right__def_axiom
  (assert
  (forall ((old_a us_t))
  (forall ((frame_condition__update_max_2__a (Array Int us_rep)))
  (! (= (= (frame_right old_a frame_condition__update_max_2__a) true)
     (forall ((i Int))
     (=> (and (<= (to_rep1 a__first) i) (<= i (to_rep1 a__last)))
     (and
     (= (to_rep
        (rec__frame_condition__cell__value
        (us_split_fields1 (select frame_condition__update_max_2__a i))))
     (to_rep
     (rec__frame_condition__cell__value
     (us_split_fields1 (select (to_array old_a) i)))))
     (= (to_rep
        (rec__frame_condition__cell__max_left
        (us_split_fields1 (select frame_condition__update_max_2__a i))))
     (to_rep
     (rec__frame_condition__cell__max_left
     (us_split_fields1 (select (to_array old_a) i))))))))) :pattern (
  (frame_right old_a frame_condition__update_max_2__a)) ))))

;; first__def_axiom
  (assert (= first3 first2))

;; last__def_axiom
  (assert (= last3 last2))

;; first__def_axiom
  (assert (= first4 last2))

;; last__def_axiom
  (assert (= last4 first2))

(declare-const a (Array Int us_rep))

(declare-const o Int)

(declare-const frame_condition__update_max_2__B_3__first__assume Int)

(declare-const frame_condition__update_max_2__B_3__last__assume Int)

(declare-const i Int)

(declare-const o1 Int)

(declare-const o2 natural)

(declare-const o3 natural)

(declare-const o4 natural)

(declare-const o5 natural)

(declare-const o6 natural)

(declare-const o7 natural)

(declare-const o8 natural)

(declare-const o9 Int)

(declare-const o10 Bool)

(declare-const a1 (Array Int us_rep))

(declare-const result Bool)

(declare-const a2 (Array Int us_rep))

(declare-const a3 (Array Int us_rep))

(declare-const a4 (Array Int us_rep))

(declare-const a5 (Array Int us_rep))

(declare-const a6 (Array Int us_rep))

(declare-const a7 (Array Int us_rep))

(define-fun a8 () map__ref (mk_map__ref a4))

;; H
  (assert (dynamic_property 1 2147483647 (to_rep1 a__first)
  (to_rep1 a__last)))

;; H
  (assert
  (or
  (and (and (= a8 (mk_map__ref a)) (= a5 a1))
  (and
  (and
  (ite (<= (to_rep1 a__first) (to_rep1 a__last))
  (= o (+ (- (to_rep1 a__last) (to_rep1 a__first)) 1)) (= o 0))
  (= result (ite (= o 0) true false))) (= result true)))
  (and
  (and
  (and
  (ite (<= (to_rep1 a__first) (to_rep1 a__last))
  (= o (+ (- (to_rep1 a__last) (to_rep1 a__first)) 1)) (= o 0))
  (= result (ite (= o 0) true false))) (not (= result true)))
  (and (and (= a3 a4) (= a5 a3))
  (and
  (and
  (and
  (= frame_condition__update_max_2__B_3__first__assume (to_rep1 a__first))
  (in_range2 (to_rep1 a__first)))
  (= frame_condition__update_max_2__B_3__first__assume first2))
  (and (in_range2 first2)
  (and
  (and
  (and (= frame_condition__update_max_2__B_3__last__assume (to_rep1 a__last))
  (in_range2 (to_rep1 a__last)))
  (= frame_condition__update_max_2__B_3__last__assume last2))
  (and (in_range2 last2)
  (and
  (and
  (and
  (forall ((i1 Int))
  (=> (and (<= first3 i1) (<= i1 last3))
  (forall ((j Int))
  (=> (and (<= i1 j) (<= j last3))
  (<= (to_rep
      (rec__frame_condition__cell__value (us_split_fields1 (select a2 i1))))
  (get_max_left j a2))))))
  (forall ((i1 Int))
  (=> (and (<= last3 i1) (<= i1 first3))
  (forall ((j Int))
  (=> (and (<= i1 j) (<= j first3))
  (<= (to_rep
      (rec__frame_condition__cell__value (us_split_fields1 (select a2 j))))
  (get_max_left i1 a2)))))))
  (= (frame_left (mk___t a (mk (to_rep1 a__first) (to_rep1 a__last))) a2) true))
  (and
  (and
  (forall ((i1 Int))
  (=> (and (<= first4 i1) (<= i1 last4))
  (forall ((j Int))
  (=> (and (<= i1 j) (<= j last4))
  (<= (to_rep
      (rec__frame_condition__cell__value (us_split_fields1 (select a3 i1))))
  (get_max_right j a3))))))
  (forall ((i1 Int))
  (=> (and (<= last4 i1) (<= i1 first4))
  (forall ((j Int))
  (=> (and (<= i1 j) (<= j first4))
  (<= (to_rep
      (rec__frame_condition__cell__value (us_split_fields1 (select a3 j))))
  (get_max_right i1 a3)))))))
  (= (frame_right (mk___t a2 (mk (to_rep1 a__first) (to_rep1 a__last))) a3) true)))))))))))

;; H
  (assert (= (mk_map__ref a6) a8))

;; H
  (assert (= a7 a5))

;; H
  (assert (<= (to_rep1 a__first) i))

;; H
  (assert (<= i (to_rep1 a__last)))

;; H
  (assert
  (= (= o10 true)
  (forall ((j Int))
  (=> (and (<= i j) (<= j (to_rep1 a__last)))
  (and
  (<= (to_rep
      (rec__frame_condition__cell__value (us_split_fields1 (select a6 i))))
  (to_rep
  (rec__frame_condition__cell__max_left (us_split_fields1 (select a6 j)))))
  (<= (to_rep
      (rec__frame_condition__cell__value (us_split_fields1 (select a6 j))))
  (to_rep
  (rec__frame_condition__cell__max_right (us_split_fields1 (select a6 i))))))))))

;; H
  (assert (and (<= (to_rep1 a__first) i) (<= i (to_rep1 a__last))))

;; H
  (assert (= o1 i))

;; H
  (assert (= (mk___rep (mk___split_fields o2 o3 o4)) (select a o1)))

;; H
  (assert (= o2 o5))

;; H
  (assert (= o3 o6))

;; H
  (assert (= o4 o7))

;; H
  (assert (= o8 o5))

;; H
  (assert (= o9 (to_rep o8)))

(assert
;; WP_parameter_def
 ;; File "frame_condition.adb", line 3, characters 0-0
  (not (<= (to_rep1 a__first) i)))
(check-sat)
(exit)
